c FILE /home/rafael/Documents/HappySet/MIHS/inputs/happygen/output/graph_scale_free_k10_p0.4_v100_20241127_083916.txt
c SOURCE This is a scale-free graph formed for the happy graph colouring problem.
c DESCRIPTION It was generated using the problem generator of Rhyd Lewis
c
c GRAPH STATS
c Seed                             = -1550161540
c Number of Nodes                  = 100
c Number of colours k              = 10
c Number of pre-assignments        = 40
c Number of links per new node     = 5
c Density                          = 0.0979798
c 
c The degrees of nodes 1 to 100, respectively, are as follows 
c [37, 36, 33, 29, 28, 25, 25, 23, 22, 19, 18, 18, 18, 17, 16, 15, 14, 14, 12, 12, 11, 11, 11, 11, 11, 11, 
c  10, 10, 10, 10, 10, 9, 9, 9, 9, 9, 9, 9, 8, 8, 8, 8, 7, 7, 7, 7, 7, 7, 7, 7, 7, 
c  7, 7, 6, 6, 6, 6, 6, 6, 6, 6, 6, 6, 6, 6, 6, 6, 6, 6, 5, 5, 5, 5, 5, 5, 5, 
c  5, 5, 5, 5, 5, 5, 5, 5, 5, 5, 5, 5, 5, 5, 5, 5, 5, 5, 5, 5, 5, 5, 5, 5] 
c  
p edge 100 485 10
e 1 2
e 1 3
e 1 4
e 1 5
e 1 6
e 1 8
e 1 9
e 1 10
e 1 11
e 1 12
e 1 14
e 1 15
e 1 16
e 1 17
e 1 18
e 1 21
e 1 22
e 1 24
e 1 25
e 1 28
e 1 30
e 1 37
e 1 44
e 1 46
e 1 47
e 1 53
e 1 55
e 1 60
e 1 64
e 1 65
e 1 75
e 1 78
e 1 84
e 1 86
e 1 91
e 1 94
e 1 97
e 2 4
e 2 5
e 2 6
e 2 8
e 2 9
e 2 10
e 2 12
e 2 13
e 2 15
e 2 16
e 2 17
e 2 19
e 2 22
e 2 25
e 2 27
e 2 32
e 2 35
e 2 37
e 2 41
e 2 43
e 2 52
e 2 55
e 2 58
e 2 60
e 2 65
e 2 66
e 2 67
e 2 72
e 2 82
e 2 83
e 2 87
e 2 89
e 2 90
e 2 92
e 2 96
e 3 4
e 3 5
e 3 6
e 3 9
e 3 11
e 3 12
e 3 15
e 3 16
e 3 19
e 3 21
e 3 23
e 3 24
e 3 25
e 3 26
e 3 29
e 3 33
e 3 36
e 3 39
e 3 46
e 3 47
e 3 55
e 3 57
e 3 62
e 3 63
e 3 70
e 3 71
e 3 74
e 3 79
e 3 80
e 3 84
e 3 85
e 3 99
e 4 5
e 4 6
e 4 9
e 4 10
e 4 11
e 4 12
e 4 13
e 4 14
e 4 17
e 4 20
e 4 24
e 4 27
e 4 35
e 4 39
e 4 43
e 4 53
e 4 57
e 4 59
e 4 66
e 4 67
e 4 69
e 4 70
e 4 74
e 4 75
e 4 76
e 4 77
e 5 6
e 5 9
e 5 11
e 5 13
e 5 14
e 5 18
e 5 24
e 5 29
e 5 30
e 5 31
e 5 39
e 5 45
e 5 50
e 5 56
e 5 57
e 5 60
e 5 64
e 5 66
e 5 73
e 5 75
e 5 78
e 5 85
e 5 95
e 5 99
e 6 7
e 6 8
e 6 10
e 6 11
e 6 16
e 6 21
e 6 22
e 6 23
e 6 34
e 6 39
e 6 52
e 6 58
e 6 61
e 6 62
e 6 74
e 6 78
e 6 90
e 6 91
e 6 94
e 6 97
e 7 10
e 7 11
e 7 13
e 7 20
e 7 21
e 7 26
e 7 32
e 7 34
e 7 35
e 7 39
e 7 40
e 7 42
e 7 45
e 7 47
e 7 50
e 7 54
e 7 55
e 7 59
e 7 77
e 7 80
e 7 92
e 7 93
e 7 95
e 7 100
e 8 9
e 8 11
e 8 13
e 8 15
e 8 26
e 8 27
e 8 28
e 8 31
e 8 38
e 8 41
e 8 44
e 8 48
e 8 49
e 8 50
e 8 62
e 8 67
e 8 72
e 8 83
e 8 89
e 8 100
e 9 11
e 9 12
e 9 14
e 9 22
e 9 27
e 9 32
e 9 35
e 9 37
e 9 42
e 9 68
e 9 69
e 9 80
e 9 82
e 9 84
e 9 87
e 9 96
e 10 13
e 10 15
e 10 22
e 10 23
e 10 27
e 10 29
e 10 47
e 10 54
e 10 59
e 10 65
e 10 71
e 10 72
e 10 85
e 10 90
e 11 13
e 11 17
e 11 19
e 11 23
e 11 33
e 11 36
e 11 39
e 11 58
e 11 66
e 11 84
e 12 14
e 12 19
e 12 21
e 12 36
e 12 38
e 12 44
e 12 49
e 12 51
e 12 56
e 12 61
e 12 70
e 12 99
e 12 100
e 13 17
e 13 18
e 13 24
e 13 25
e 13 40
e 13 63
e 13 65
e 13 70
e 13 77
e 13 88
e 13 100
e 14 16
e 14 19
e 14 20
e 14 26
e 14 35
e 14 36
e 14 51
e 14 66
e 14 75
e 14 91
e 14 92
e 14 94
e 15 20
e 15 30
e 15 32
e 15 33
e 15 34
e 15 37
e 15 40
e 15 41
e 15 43
e 15 63
e 15 68
e 16 28
e 16 29
e 16 33
e 16 34
e 16 45
e 16 48
e 16 68
e 16 76
e 16 92
e 16 97
e 17 20
e 17 41
e 17 43
e 17 49
e 17 56
e 17 57
e 17 68
e 17 76
e 17 83
e 18 20
e 18 25
e 18 29
e 18 41
e 18 48
e 18 60
e 18 69
e 18 75
e 18 85
e 18 91
e 18 92
e 19 37
e 19 50
e 19 51
e 19 56
e 19 62
e 19 88
e 19 89
e 20 58
e 20 78
e 20 82
e 20 84
e 20 96
e 20 97
e 21 23
e 21 28
e 21 55
e 21 64
e 21 71
e 21 73
e 22 54
e 22 57
e 22 58
e 22 59
e 22 69
e 22 86
e 23 26
e 23 32
e 23 33
e 23 34
e 23 54
e 23 88
e 24 31
e 24 54
e 24 71
e 24 77
e 24 87
e 24 89
e 25 36
e 25 39
e 25 44
e 25 52
e 25 73
e 25 99
e 26 28
e 26 44
e 26 47
e 26 53
e 26 82
e 26 89
e 27 46
e 27 72
e 27 81
e 27 87
e 27 98
e 28 60
e 28 71
e 28 72
e 28 73
e 28 98
e 29 42
e 29 46
e 29 51
e 29 67
e 29 74
e 30 31
e 30 36
e 30 40
e 30 42
e 30 48
e 30 49
e 30 52
e 31 33
e 31 50
e 31 73
e 31 81
e 31 86
e 31 93
e 32 40
e 32 45
e 32 62
e 32 86
e 33 38
e 33 40
e 33 43
e 34 38
e 34 61
e 34 90
e 34 94
e 35 59
e 35 61
e 35 90
e 35 95
e 36 52
e 36 56
e 36 97
e 37 45
e 37 79
e 37 80
e 37 95
e 38 44
e 38 68
e 38 79
e 38 86
e 38 98
e 39 76
e 40 77
e 40 91
e 41 61
e 41 63
e 41 94
e 42 48
e 42 64
e 42 79
e 42 81
e 43 70
e 43 83
e 44 46
e 45 51
e 45 80
e 46 48
e 46 76
e 47 63
e 47 93
e 48 100
e 49 60
e 49 74
e 49 79
e 50 95
e 50 98
e 51 53
e 51 93
e 52 82
e 52 85
e 53 63
e 53 96
e 53 99
e 54 98
e 55 65
e 56 93
e 57 83
e 58 88
e 59 78
e 61 64
e 62 69
e 64 81
e 65 88
e 66 67
e 67 81
e 68 96
e 69 87
n 8 3
n 12 2
n 22 4
n 24 5
n 25 6
n 26 3
n 29 10
n 37 1
n 45 1
n 48 3
n 52 6
n 55 3
n 56 2
n 58 4
n 60 2
n 61 2
n 63 1
n 65 3
n 66 10
n 68 8
n 69 4
n 71 5
n 72 3
n 74 10
n 75 5
n 76 5
n 77 5
n 78 7
n 80 1
n 81 5
n 83 3
n 85 6
n 86 4
n 91 7
n 92 9
n 93 2
n 94 3
n 95 1
n 96 8
n 97 9
